25° run output:
{
    "Function": "ClusterB500.tsp",
    "Problem dimension": [
        249,
        117,
        431,
        294,
        222,
        101,
        253,
        146,
        439,
        276,
        87,
        217,
        295,
        125,
        339,
        168,
        456,
        65,
        444,
        3,
        10,
        78,
        135,
        80,
        492,
        31,
        137,
        429,
        198,
        302,
        335,
        104,
        186,
        489,
        471,
        232,
        179,
        363,
        120,
        143,
        111,
        74,
        227,
        138,
        469,
        382,
        396,
        478,
        474,
        316,
        383,
        385,
        151,
        69,
        328,
        63,
        320,
        484,
        250,
        7,
        360,
        459,
        497,
        468,
        180,
        374,
        251,
        52,
        19,
        73,
        204,
        460,
        371,
        346,
        277,
        461,
        36,
        187,
        389,
        127,
        29,
        223,
        264,
        21,
        26,
        366,
        124,
        331,
        165,
        47,
        453,
        285,
        407,
        97,
        402,
        116,
        0,
        233,
        110,
        365,
        238,
        211,
        400,
        303,
        334,
        17,
        242,
        329,
        447,
        487,
        205,
        246,
        156,
        416,
        301,
        438,
        71,
        495,
        355,
        433,
        340,
        384,
        140,
        318,
        300,
        100,
        325,
        463,
        188,
        147,
        281,
        178,
        16,
        193,
        377,
        297,
        237,
        479,
        450,
        322,
        131,
        62,
        95,
        333,
        342,
        103,
        395,
        307,
        228,
        89,
        245,
        451,
        282,
        184,
        38,
        311,
        280,
        270,
        292,
        358,
        226,
        465,
        359,
        37,
        75,
        430,
        210,
        299,
        1,
        272,
        409,
        408,
        170,
        106,
        53,
        77,
        209,
        367,
        28,
        344,
        354,
        493,
        356,
        472,
        260,
        419,
        231,
        348,
        248,
        119,
        313,
        61,
        46,
        278,
        133,
        213,
        235,
        255,
        347,
        56,
        112,
        136,
        490,
        312,
        315,
        372,
        415,
        455,
        14,
        336,
        375,
        48,
        194,
        321,
        475,
        68,
        426,
        391,
        221,
        154,
        390,
        351,
        102,
        350,
        57,
        386,
        293,
        207,
        153,
        434,
        287,
        425,
        296,
        388,
        219,
        220,
        421,
        423,
        212,
        310,
        215,
        162,
        273,
        364,
        406,
        452,
        240,
        230,
        284,
        239,
        373,
        486,
        229,
        330,
        440,
        84,
        449,
        82,
        181,
        152,
        79,
        401,
        33,
        86,
        353,
        139,
        51,
        464,
        107,
        141,
        258,
        13,
        443,
        6,
        290,
        191,
        32,
        206,
        473,
        485,
        271,
        381,
        203,
        96,
        279,
        305,
        427,
        403,
        150,
        108,
        164,
        182,
        319,
        42,
        67,
        64,
        99,
        236,
        496,
        144,
        43,
        470,
        306,
        420,
        259,
        81,
        392,
        338,
        158,
        196,
        24,
        218,
        247,
        45,
        185,
        171,
        34,
        314,
        123,
        114,
        428,
        50,
        234,
        411,
        214,
        413,
        27,
        376,
        9,
        454,
        190,
        241,
        261,
        161,
        476,
        412,
        175,
        481,
        332,
        130,
        30,
        442,
        88,
        157,
        317,
        398,
        159,
        85,
        345,
        118,
        192,
        55,
        225,
        22,
        446,
        387,
        417,
        370,
        482,
        8,
        432,
        268,
        269,
        275,
        477,
        436,
        173,
        25,
        93,
        274,
        20,
        291,
        176,
        167,
        109,
        160,
        467,
        11,
        483,
        378,
        424,
        254,
        216,
        441,
        145,
        357,
        368,
        23,
        298,
        208,
        98,
        44,
        134,
        422,
        397,
        337,
        94,
        323,
        66,
        288,
        341,
        90,
        59,
        289,
        256,
        343,
        488,
        304,
        405,
        202,
        458,
        266,
        115,
        326,
        113,
        394,
        155,
        267,
        257,
        70,
        122,
        129,
        404,
        369,
        362,
        262,
        83,
        224,
        128,
        172,
        361,
        437,
        169,
        121,
        199,
        132,
        435,
        349,
        418,
        58,
        35,
        15,
        12,
        327,
        4,
        308,
        5,
        2,
        189,
        243,
        379,
        448,
        498,
        177,
        72,
        263,
        166,
        163,
        18,
        183,
        445,
        380,
        499,
        244,
        40,
        494,
        480,
        41,
        457,
        324,
        195,
        393,
        39,
        399,
        142,
        174,
        91,
        49,
        414,
        252,
        265,
        200,
        149,
        466,
        105,
        60,
        126,
        352,
        283,
        462,
        201,
        148,
        286,
        410,
        491,
        54,
        76,
        197,
        309,
        92
    ],
    "Global Optimum": 0,
    "Algorithm": "Genetic algorithm",
    "Parameters": {
        "population": 30,
        "offspring": 30,
        "mutation probability": 0.002,
        "crossover probability": 0.9
    },
    "Fitness": 657302,
    "Solution": [
        249,
        117,
        431,
        294,
        222,
        101,
        253,
        146,
        439,
        276,
        87,
        217,
        295,
        125,
        339,
        168,
        456,
        65,
        444,
        3,
        10,
        78,
        135,
        80,
        492,
        31,
        137,
        429,
        198,
        302,
        335,
        104,
        186,
        489,
        471,
        232,
        179,
        363,
        120,
        143,
        111,
        74,
        227,
        138,
        469,
        382,
        396,
        478,
        474,
        316,
        383,
        385,
        151,
        69,
        328,
        63,
        320,
        484,
        250,
        7,
        360,
        459,
        497,
        468,
        180,
        374,
        251,
        52,
        19,
        73,
        204,
        460,
        371,
        346,
        277,
        461,
        36,
        187,
        389,
        127,
        29,
        223,
        264,
        21,
        26,
        366,
        124,
        331,
        165,
        47,
        453,
        285,
        407,
        97,
        402,
        116,
        0,
        233,
        110,
        365,
        238,
        211,
        400,
        303,
        334,
        17,
        242,
        329,
        447,
        487,
        205,
        246,
        156,
        416,
        301,
        438,
        71,
        495,
        355,
        433,
        340,
        384,
        140,
        318,
        300,
        100,
        325,
        463,
        188,
        147,
        281,
        178,
        16,
        193,
        377,
        297,
        237,
        479,
        450,
        322,
        131,
        62,
        95,
        333,
        342,
        103,
        395,
        307,
        228,
        89,
        245,
        451,
        282,
        184,
        38,
        311,
        280,
        270,
        292,
        358,
        226,
        465,
        359,
        37,
        75,
        430,
        210,
        299,
        1,
        272,
        409,
        408,
        170,
        106,
        53,
        77,
        209,
        367,
        28,
        344,
        354,
        493,
        356,
        472,
        260,
        419,
        231,
        348,
        248,
        119,
        313,
        61,
        46,
        278,
        133,
        213,
        235,
        255,
        347,
        56,
        112,
        136,
        490,
        312,
        315,
        372,
        415,
        455,
        14,
        336,
        375,
        48,
        194,
        321,
        475,
        68,
        426,
        391,
        221,
        154,
        390,
        351,
        102,
        350,
        57,
        386,
        293,
        207,
        153,
        434,
        287,
        425,
        296,
        388,
        219,
        220,
        421,
        423,
        212,
        310,
        215,
        162,
        273,
        364,
        406,
        452,
        240,
        230,
        284,
        239,
        373,
        486,
        229,
        330,
        440,
        84,
        449,
        82,
        181,
        152,
        79,
        401,
        33,
        86,
        353,
        139,
        51,
        464,
        107,
        141,
        258,
        13,
        443,
        6,
        290,
        191,
        32,
        206,
        473,
        485,
        271,
        381,
        203,
        96,
        279,
        305,
        427,
        403,
        150,
        108,
        164,
        182,
        319,
        42,
        67,
        64,
        99,
        236,
        496,
        144,
        43,
        470,
        306,
        420,
        259,
        81,
        392,
        338,
        158,
        196,
        24,
        218,
        247,
        45,
        185,
        171,
        34,
        314,
        123,
        114,
        428,
        50,
        234,
        411,
        214,
        413,
        27,
        376,
        9,
        454,
        190,
        241,
        261,
        161,
        476,
        412,
        175,
        481,
        332,
        130,
        30,
        442,
        88,
        157,
        317,
        398,
        159,
        85,
        345,
        118,
        192,
        55,
        225,
        22,
        446,
        387,
        417,
        370,
        482,
        8,
        432,
        268,
        269,
        275,
        477,
        436,
        173,
        25,
        93,
        274,
        20,
        291,
        176,
        167,
        109,
        160,
        467,
        11,
        483,
        378,
        424,
        254,
        216,
        441,
        145,
        357,
        368,
        23,
        298,
        208,
        98,
        44,
        134,
        422,
        397,
        337,
        94,
        323,
        66,
        288,
        341,
        90,
        59,
        289,
        256,
        343,
        488,
        304,
        405,
        202,
        458,
        266,
        115,
        326,
        113,
        394,
        155,
        267,
        257,
        70,
        122,
        129,
        404,
        369,
        362,
        262,
        83,
        224,
        128,
        172,
        361,
        437,
        169,
        121,
        199,
        132,
        435,
        349,
        418,
        58,
        35,
        15,
        12,
        327,
        4,
        308,
        5,
        2,
        189,
        243,
        379,
        448,
        498,
        177,
        72,
        263,
        166,
        163,
        18,
        183,
        445,
        380,
        499,
        244,
        40,
        494,
        480,
        41,
        457,
        324,
        195,
        393,
        39,
        399,
        142,
        174,
        91,
        49,
        414,
        252,
        265,
        200,
        149,
        466,
        105,
        60,
        126,
        352,
        283,
        462,
        201,
        148,
        286,
        410,
        491,
        54,
        76,
        197,
        309,
        92
    ],
    "Nb of functions evaluations": 50010,
    "Computational time in seconds": 363.79585552215576,
    "Stopping criterion in evaluations": 50000
}